N = 8;
H = 6;
T = 2;

avail = array3d(1..N, 1..H, 1..T, [3, 0, 0, 9, 10, 8, 4, 9, 0, 5, 1, 9, 1, 10, 8, 8, 9, 9, 7, 0, 5, 9, 7, 2, 7, 7, 8, 8, 6, 0, 10, 9, 5, 10, 7, 5, 8, 9, 9, 3, 2, 10, 0, 6, 5, 4, 7, 2, 8, 9, 8, 8, 10, 2, 8, 7, 0, 9, 6, 7, 10, 4, 5, 6, 1, 4, 9, 1, 1, 4, 7, 4, 10, 3, 5, 2, 6, 4, 2, 6, 0, 6, 9, 9, 4, 1, 6, 8, 0, 10, 0, 6, 8, 1, 2, 1]);

r = array2d(1..H, 1..T, [0, 2, 2, 3, 1, 3, 2, 0, 1, 1, 3, 2]);
